
  32    4
  10   10   10   10

   0   0   0   0   0   4 2 29 30 31 
   5   1   0   1   1   1 3 
   7   0   1   3   5   1 4 
   8   6   8   0   3   1 5 
   8   1   0   3   3   1 6 
   4   5   3   1   0   2 28 7 
  10   3   4   0   5   2 27 8 
   2   2   4   0   2   1 9 
  10   0   6   4   5   1 10 
  10   3   2   0   6   1 11 
   4   6   0   8   4   1 12 
   7   0   4   8   4   1 13 
   9   4   0   3   4   1 14 
   4   0   2   4   6   2 26 15 
   1   0   7   1   4   1 16 
   3   6   0   3   3   1 17 
   5   0   2   3   6   1 18 
   4   0   5   2   1   1 19 
   3   0   3   5   5   1 20 
   3   0   6   6   4   1 21 
   4   4   0   4   5   1 22 
   8   8   0   4   3   1 23 
   9   2   2   7   0   1 24 
   4   4   3   5   0   1 25 
   7   7   5   2   0   1 32
   5   6   0   7   2   1 32
  10   1   0   4   4   1 32
   9   1   0   5   3   1 32
   3   6   3   4   0   1 32
   4   3   6   3   0   1 32
   4   5   0   4   8   1 32
   0   0   0   0   0   0 
